StudentsNr = 10;
InstructorsNr = 35;
DaysNr = 2;
SlotsPerDay = 40;
AvailabilitySlotsLenght = 40;
RoomNr = 1;
ProgrammNr = 2;
DegreeNr = 1;
RolesNr = 3;
CoursesNr = 8;
InstructorsProgramm = [{2}, {1}, {2}, {1, 2}, {1, 2}, {2}, {2}, {1, 2}, {2}, {2}, {2}, {1}, {1, 2}, {2}, {2}, {2}, {2}, {2}, {1, 2}, {2}, {2}, {1, 2}, {2}, {2}, {2}, {2}, {1, 2}, {1}, {1}, {1}, {1}, {1, 2}, {1}, {1}, {1}];
InstructorRolesPerProgramm = [|{5, 8, 13, 22, 33, 34}, {4, 8, 12, 30}, {4, 5, 8, 29, 33}|{5, 6, 8, 13, 14, 17, 20, 21, 22, 24}, {4, 8, 11, 15, 18, 21, 24, 26}, {3, 4, 5, 6, 7, 8, 11, 18, 20, 26}|];
InstructorsAvailability = [|0, 1, |1, 0, |0, 1, |1, 0, |0, 1, |0, 1, |1, 1, |0, 1, |0, 1, |1, 1, |0, 0, |1, 1, |1, 1, |0, 1, |1, 1, |1, 1, |1, 0, |1, 1, |1, 1, |1, 1, |0, 1, |1, 1, |1, 1, |0, 0, |0, 1, |1, 0, |1, 0, |0, 0, |1, 0, |0, 1, |0, 0, |1, 1, |1, 1, |0, 0, |0, 1|];
StudentsProgramm = [2, 1, 2, 2, 1, 2, 2, 1, 1, 1];
StudentsDegree = [1, 1, 1, 1, 1, 1, 1, 1, 1, 1];
StudentsSupervisorId = [9, 34, 10, 8, 22, 13, 27, 4, 34, 34];
StudentsCourseIds = [{1, 2, 3, 4, 5, 7}, {1, 2, 3, 4, 5, 7}, {1, 2, 3, 4, 6, 8}, {1, 2, 4, 5, 7, 8}, {1, 2, 3, 4, 6, 7}, {1, 2, 4, 5, 6, 8}, {2, 3, 5, 6, 7, 8}, {1, 2, 4, 5, 6, 8}, {1, 2, 4, 5, 6, 7}, {1, 2, 3, 5, 6, 7}];
StudentsAvailability = [|0, 0, |0, 0, |0, 0, |0, 1, |0, 1, |1, 1, |0, 1, |1, 1, |0, 1, |1, 1|];
TheoryticalMinCard = [0, 2, 0, 0, 2, 0, 0, 1, 2, 1];
CoursesInstructorIds = [{1, 2, 4, 10, 11, 12, 14, 15, 17, 20, 21, 22, 23, 24, 25, 26, 28, 29, 31, 32, 35}, {5, 6, 11, 12, 13, 14, 15, 22, 24, 28, 30, 33, 34}, {1, 3, 6, 8, 10, 11, 13, 14, 15, 16, 17, 18, 19, 20, 23, 24, 25, 26, 27, 29, 30, 34, 35}, {7, 9, 17, 25}, {4, 6, 16, 19, 20, 22, 26, 27, 28, 29, 31, 33, 34, 35}, {3, 4, 5, 6, 10, 12, 13, 16, 17, 18, 19, 20, 21, 22, 23, 24, 27, 29, 30, 31, 32, 33, 34}, {16, 24, 27}, {2, 3, 4, 5, 12, 14, 15, 19, 21, 25, 26, 29}];
RolesDemands = [4, 3, 3];
RolesContinuity = [];
ExamLen = [2, 2, 2, 2, 2, 2, 2, 2, 2, 2];
LunchTsMinLen = 1;
LunchStarts = [18..29, 56..70];
SupervisorAvailable = 5;
OptimalLunchLenght = [0, 2];
OptimalStartTs = [1, 1];
OptimalFinishTs = [1, 40];
MinimizeRooms = 200;
RolesSoftContinuity = [|1, 2, 3|2, 1, 4|];
SameDegreeInRoom = 20;
Mergeability = 0;
